p cnf 15 23
15 0
14 -12 -13 0
-14 12 0
-14 13 0
-13 7 9 0
13 -7 0
13 -9 0
12 2 0
-12 -2 0
11 -2 -10 0
-11 2 0
-11 10 0
-15 11 14 0
15 -11 0
15 -14 0
-10 8 9 0
10 -8 0
10 -9 0
9 7 0
-9 -7 0
8 -7 -1 0
-8 7 0
-8 1 0
